Maximize
  - 3.628648258248 edge_0_2_0_0 - 0.53782134678306 edge_0_3_0_0
   - 2.9079908847116 edge_0_4_0_0 - 1.211670375156 edge_0_5_0_0
   - 1.7013273785312 edge_0_7_0_0 + 0.5764730570572598 edge_2_3_0_0
   + 0.7044634769103288 edge_2_4_0_0 + 0.2821894206160831 edge_2_5_0_0
   - 0.3103702871127307 edge_2_7_0_0 - 0.9554771171223637 edge_2_13_0_0
   - 1.033528440157111 edge_2_19_0_0 - 0.9127274693923944 edge_2_23_0_0
   + 2.288936844866287 edge_3_2_0_0 + 1.310304382929891 edge_3_4_0_0
   + 0.6237502824270136 edge_3_5_0_0 - 0.112759845936027 edge_3_7_0_0
   - 0.6864750656714464 edge_3_12_0_0 - 1.315316798443795 edge_3_13_0_0
   - 0.3496907623616186 edge_3_15_0_0 + 0.0748661459148307 edge_3_16_0_0
   - 0.9087941374877455 edge_3_17_0_0 - 2.047592376597283 edge_3_20_0_0
   - 1.779997226837853 edge_3_23_0_0 + 3.610917795438264 edge_3_24_0_0
   - 1.177006588863366 edge_4_2_0_0 - 0.2621012826963796 edge_4_3_0_0
   - 0.6952843839189865 edge_4_5_0_0 - 0.5674716171012278 edge_4_7_0_0
   - 0.3441383225972459 edge_5_2_0_0 + 0.6957316871249041 edge_5_3_0_0
   + 0.3834786161727362 edge_5_4_0_0 + 1.133508713566 edge_5_7_0_0
   - 0.3104188944591846 edge_5_12_0_0 - 0.0965645887859298 edge_5_13_0_0
   - 0.1953417593269735 edge_5_15_0_0 + 0.1174010750290303 edge_5_16_0_0
   - 0.5650689278952236 edge_5_17_0_0 - 1.258729602760379 edge_5_19_0_0
   - 1.884791543801114 edge_5_20_0_0 - 1.167757508660971 edge_5_21_0_0
   - 1.532375586519984 edge_5_23_0_0 + 2.074663720355938 edge_5_24_0_0
   - 0.44001751802173 edge_7_2_0_0 - 0.1419138855181487 edge_7_3_0_0
   + 0.3583528904109575 edge_7_4_0_0 + 0.9060947950875667 edge_7_5_0_0
   - 0.2458579332777928 edge_7_12_0_0 - 0.5068475860085335 edge_7_13_0_0
   - 0.2140840411435894 edge_7_15_0_0 - 0.2279436490690092 edge_7_16_0_0
   - 0.5894864278899647 edge_7_19_0_0 - 0.6517257548671097 edge_7_21_0_0
   + 0.1435019236255436 edge_7_24_0_0 - 0.5313693940578484 edge_12_2_0_0
   - 0.2050790080227504 edge_12_3_0_0 + 0.057714619820159 edge_12_4_0_0
   + 0.233662428551005 edge_12_5_0_0 - 0.0138068689809001 edge_12_7_0_0
   + 0.3363876178503495 edge_12_13_0_0 + 0.0835394719151944 edge_12_15_0_0
   + 0.2579163395649245 edge_12_16_0_0 - 0.1793047882101759 edge_12_17_0_0
   + 0.065228494709621 edge_12_19_0_0 - 0.3627426070512181 edge_12_20_0_0
   - 0.00340281346053855 edge_12_21_0_0 - 0.0606816297003807 edge_12_23_0_0
   + 0.5050495328549799 edge_12_24_0_0 - 1.254883816148479 edge_13_2_0_0
   - 0.1448828398407178 edge_13_3_0_0 - 1.899199624117763 edge_13_4_0_0
   + 0.1610939793486557 edge_13_5_0_0 - 0.9157590437925203 edge_13_7_0_0
   + 0.2196348609891179 edge_13_12_0_0 + 0.4446887417184089 edge_13_15_0_0
   + 0.8797766674467488 edge_13_16_0_0 - 0.0278023436723282 edge_13_17_0_0
   + 0.7286255964246882 edge_13_19_0_0 - 0.3922232153785059 edge_13_20_0_0
   + 0.844504368417257 edge_13_21_0_0 + 0.4324053775509671 edge_13_23_0_0
   + 0.6301894617906657 edge_13_24_0_0 + 0.1493605252914219 edge_15_12_0_0
   + 0.2380642261808449 edge_15_13_0_0 + 0.2508581627209958 edge_15_16_0_0
   - 0.0941916255869702 edge_15_17_0_0 - 0.0107539659360295 edge_15_19_0_0
   - 0.2366639035134885 edge_15_20_0_0 - 0.0741055098054258 edge_15_21_0_0
   - 0.0585816876782799 edge_15_23_0_0 + 0.2105612281423287 edge_15_24_0_0
   - 0.777894779614963 edge_16_13_0_0 - 0.0143591839023859 edge_17_16_0_0
   + 0.5683060860730182 edge_17_19_0_0 + 0.0242971426415726 edge_17_20_0_0
   + 0.1387026730948763 edge_17_21_0_0 + 0.3288593816816589 edge_17_23_0_0
   + 0.0532714325720921 edge_17_24_0_0 - 0.31550314302396 edge_19_12_0_0
   - 0.172761740329295 edge_19_13_0_0 - 0.0516741983914838 edge_19_15_0_0
   + 0.5385887552267041 edge_19_16_0_0 + 0.8377851460633468 edge_19_17_0_0
   + 0.5259411782119567 edge_19_20_0_0 + 1.484092318090835 edge_19_21_0_0
   + 2.538822271825593 edge_19_23_0_0 + 0.7522042750689738 edge_19_24_0_0
   - 0.1488904026776094 edge_20_23_0_0 - 0.7020807448657859 edge_21_12_0_0
   - 0.260589855710402 edge_21_15_0_0 + 0.1690408371087031 edge_21_17_0_0
   + 0.3601358559552221 edge_21_19_0_0 + 3.281248410113505 edge_21_20_0_0
   + 1.106225276723797 edge_21_23_0_0 + 0.797070382120439 edge_21_24_0_0
   + 0.1383328044095134 edge_23_17_0_0 + 0.0265989106958584 edge_23_20_0_0
   + 0.4840502922849959 edge_23_21_0_0 + 0.1173508530725655 edge_23_24_0_0
   - 1.438401286732649 edge_24_21_0_0
Subject To
 one_parent_1: = 1
 consume_one_flow_unit_1: = 1
 one_parent_2: edge_0_2_0_0 + edge_3_2_0_0 + edge_4_2_0_0 + edge_5_2_0_0
   + edge_7_2_0_0 + edge_12_2_0_0 + edge_13_2_0_0 = 1
 consume_one_flow_unit_2: flow_0_2_0_0 - flow_2_3_0_0 - flow_2_4_0_0
   - flow_2_5_0_0 - flow_2_7_0_0 - flow_2_13_0_0 - flow_2_19_0_0
   - flow_2_23_0_0 + flow_3_2_0_0 + flow_4_2_0_0 + flow_5_2_0_0
   + flow_7_2_0_0 + flow_12_2_0_0 + flow_13_2_0_0 = 1
 one_parent_3: edge_0_3_0_0 + edge_2_3_0_0 + edge_4_3_0_0 + edge_5_3_0_0
   + edge_7_3_0_0 + edge_12_3_0_0 + edge_13_3_0_0 = 1
 consume_one_flow_unit_3: flow_0_3_0_0 + flow_2_3_0_0 - flow_3_2_0_0
   - flow_3_4_0_0 - flow_3_5_0_0 - flow_3_7_0_0 - flow_3_12_0_0
   - flow_3_13_0_0 - flow_3_15_0_0 - flow_3_16_0_0 - flow_3_17_0_0
   - flow_3_20_0_0 - flow_3_23_0_0 - flow_3_24_0_0 + flow_4_3_0_0
   + flow_5_3_0_0 + flow_7_3_0_0 + flow_12_3_0_0 + flow_13_3_0_0 = 1
 one_parent_4: edge_0_4_0_0 + edge_2_4_0_0 + edge_3_4_0_0 + edge_5_4_0_0
   + edge_7_4_0_0 + edge_12_4_0_0 + edge_13_4_0_0 = 1
 consume_one_flow_unit_4: flow_0_4_0_0 + flow_2_4_0_0 + flow_3_4_0_0
   - flow_4_2_0_0 - flow_4_3_0_0 - flow_4_5_0_0 - flow_4_7_0_0
   + flow_5_4_0_0 + flow_7_4_0_0 + flow_12_4_0_0 + flow_13_4_0_0 = 1
 one_parent_5: edge_0_5_0_0 + edge_2_5_0_0 + edge_3_5_0_0 + edge_4_5_0_0
   + edge_7_5_0_0 + edge_12_5_0_0 + edge_13_5_0_0 = 1
 consume_one_flow_unit_5: flow_0_5_0_0 + flow_2_5_0_0 + flow_3_5_0_0
   + flow_4_5_0_0 - flow_5_2_0_0 - flow_5_3_0_0 - flow_5_4_0_0
   - flow_5_7_0_0 - flow_5_12_0_0 - flow_5_13_0_0 - flow_5_15_0_0
   - flow_5_16_0_0 - flow_5_17_0_0 - flow_5_19_0_0 - flow_5_20_0_0
   - flow_5_21_0_0 - flow_5_23_0_0 - flow_5_24_0_0 + flow_7_5_0_0
   + flow_12_5_0_0 + flow_13_5_0_0 = 1
 one_parent_6: = 1
 consume_one_flow_unit_6: = 1
 one_parent_7: edge_0_7_0_0 + edge_2_7_0_0 + edge_3_7_0_0 + edge_4_7_0_0
   + edge_5_7_0_0 + edge_12_7_0_0 + edge_13_7_0_0 = 1
 consume_one_flow_unit_7: flow_0_7_0_0 + flow_2_7_0_0 + flow_3_7_0_0
   + flow_4_7_0_0 + flow_5_7_0_0 - flow_7_2_0_0 - flow_7_3_0_0
   - flow_7_4_0_0 - flow_7_5_0_0 - flow_7_12_0_0 - flow_7_13_0_0
   - flow_7_15_0_0 - flow_7_16_0_0 - flow_7_19_0_0 - flow_7_21_0_0
   - flow_7_24_0_0 + flow_12_7_0_0 + flow_13_7_0_0 = 1
 one_parent_8: = 1
 consume_one_flow_unit_8: = 1
 one_parent_9: = 1
 consume_one_flow_unit_9: = 1
 one_parent_10: = 1
 consume_one_flow_unit_10: = 1
 one_parent_11: = 1
 consume_one_flow_unit_11: = 1
 one_parent_12: edge_3_12_0_0 + edge_5_12_0_0 + edge_7_12_0_0
   + edge_13_12_0_0 + edge_15_12_0_0 + edge_19_12_0_0 + edge_21_12_0_0 = 1
 consume_one_flow_unit_12: flow_3_12_0_0 + flow_5_12_0_0 + flow_7_12_0_0
   - flow_12_2_0_0 - flow_12_3_0_0 - flow_12_4_0_0 - flow_12_5_0_0
   - flow_12_7_0_0 - flow_12_13_0_0 - flow_12_15_0_0 - flow_12_16_0_0
   - flow_12_17_0_0 - flow_12_19_0_0 - flow_12_20_0_0 - flow_12_21_0_0
   - flow_12_23_0_0 - flow_12_24_0_0 + flow_13_12_0_0 + flow_15_12_0_0
   + flow_19_12_0_0 + flow_21_12_0_0 = 1
 one_parent_13: edge_2_13_0_0 + edge_3_13_0_0 + edge_5_13_0_0
   + edge_7_13_0_0 + edge_12_13_0_0 + edge_15_13_0_0 + edge_16_13_0_0
   + edge_19_13_0_0 = 1
 consume_one_flow_unit_13: flow_2_13_0_0 + flow_3_13_0_0 + flow_5_13_0_0
   + flow_7_13_0_0 + flow_12_13_0_0 - flow_13_2_0_0 - flow_13_3_0_0
   - flow_13_4_0_0 - flow_13_5_0_0 - flow_13_7_0_0 - flow_13_12_0_0
   - flow_13_15_0_0 - flow_13_16_0_0 - flow_13_17_0_0 - flow_13_19_0_0
   - flow_13_20_0_0 - flow_13_21_0_0 - flow_13_23_0_0 - flow_13_24_0_0
   + flow_15_13_0_0 + flow_16_13_0_0 + flow_19_13_0_0 = 1
 one_parent_14: = 1
 consume_one_flow_unit_14: = 1
 one_parent_15: edge_3_15_0_0 + edge_5_15_0_0 + edge_7_15_0_0
   + edge_12_15_0_0 + edge_13_15_0_0 + edge_19_15_0_0 + edge_21_15_0_0 = 1
 consume_one_flow_unit_15: flow_3_15_0_0 + flow_5_15_0_0 + flow_7_15_0_0
   + flow_12_15_0_0 + flow_13_15_0_0 - flow_15_12_0_0 - flow_15_13_0_0
   - flow_15_16_0_0 - flow_15_17_0_0 - flow_15_19_0_0 - flow_15_20_0_0
   - flow_15_21_0_0 - flow_15_23_0_0 - flow_15_24_0_0 + flow_19_15_0_0
   + flow_21_15_0_0 = 1
 one_parent_16: edge_3_16_0_0 + edge_5_16_0_0 + edge_7_16_0_0
   + edge_12_16_0_0 + edge_13_16_0_0 + edge_15_16_0_0 + edge_17_16_0_0
   + edge_19_16_0_0 = 1
 consume_one_flow_unit_16: flow_3_16_0_0 + flow_5_16_0_0 + flow_7_16_0_0
   + flow_12_16_0_0 + flow_13_16_0_0 + flow_15_16_0_0 - flow_16_13_0_0
   + flow_17_16_0_0 + flow_19_16_0_0 = 1
 one_parent_17: edge_3_17_0_0 + edge_5_17_0_0 + edge_12_17_0_0
   + edge_13_17_0_0 + edge_15_17_0_0 + edge_19_17_0_0 + edge_21_17_0_0
   + edge_23_17_0_0 = 1
 consume_one_flow_unit_17: flow_3_17_0_0 + flow_5_17_0_0 + flow_12_17_0_0
   + flow_13_17_0_0 + flow_15_17_0_0 - flow_17_16_0_0 - flow_17_19_0_0
   - flow_17_20_0_0 - flow_17_21_0_0 - flow_17_23_0_0 - flow_17_24_0_0
   + flow_19_17_0_0 + flow_21_17_0_0 + flow_23_17_0_0 = 1
 one_parent_18: = 1
 consume_one_flow_unit_18: = 1
 one_parent_19: edge_2_19_0_0 + edge_5_19_0_0 + edge_7_19_0_0
   + edge_12_19_0_0 + edge_13_19_0_0 + edge_15_19_0_0 + edge_17_19_0_0
   + edge_21_19_0_0 = 1
 consume_one_flow_unit_19: flow_2_19_0_0 + flow_5_19_0_0 + flow_7_19_0_0
   + flow_12_19_0_0 + flow_13_19_0_0 + flow_15_19_0_0 + flow_17_19_0_0
   - flow_19_12_0_0 - flow_19_13_0_0 - flow_19_15_0_0 - flow_19_16_0_0
   - flow_19_17_0_0 - flow_19_20_0_0 - flow_19_21_0_0 - flow_19_23_0_0
   - flow_19_24_0_0 + flow_21_19_0_0 = 1
 one_parent_20: edge_3_20_0_0 + edge_5_20_0_0 + edge_12_20_0_0
   + edge_13_20_0_0 + edge_15_20_0_0 + edge_17_20_0_0 + edge_19_20_0_0
   + edge_21_20_0_0 + edge_23_20_0_0 = 1
 consume_one_flow_unit_20: flow_3_20_0_0 + flow_5_20_0_0 + flow_12_20_0_0
   + flow_13_20_0_0 + flow_15_20_0_0 + flow_17_20_0_0 + flow_19_20_0_0
   - flow_20_23_0_0 + flow_21_20_0_0 + flow_23_20_0_0 = 1
 one_parent_21: edge_5_21_0_0 + edge_7_21_0_0 + edge_12_21_0_0
   + edge_13_21_0_0 + edge_15_21_0_0 + edge_17_21_0_0 + edge_19_21_0_0
   + edge_23_21_0_0 + edge_24_21_0_0 = 1
 consume_one_flow_unit_21: flow_5_21_0_0 + flow_7_21_0_0 + flow_12_21_0_0
   + flow_13_21_0_0 + flow_15_21_0_0 + flow_17_21_0_0 + flow_19_21_0_0
   - flow_21_12_0_0 - flow_21_15_0_0 - flow_21_17_0_0 - flow_21_19_0_0
   - flow_21_20_0_0 - flow_21_23_0_0 - flow_21_24_0_0 + flow_23_21_0_0
   + flow_24_21_0_0 = 1
 one_parent_22: = 1
 consume_one_flow_unit_22: = 1
 one_parent_23: edge_2_23_0_0 + edge_3_23_0_0 + edge_5_23_0_0
   + edge_12_23_0_0 + edge_13_23_0_0 + edge_15_23_0_0 + edge_17_23_0_0
   + edge_19_23_0_0 + edge_20_23_0_0 + edge_21_23_0_0 = 1
 consume_one_flow_unit_23: flow_2_23_0_0 + flow_3_23_0_0 + flow_5_23_0_0
   + flow_12_23_0_0 + flow_13_23_0_0 + flow_15_23_0_0 + flow_17_23_0_0
   + flow_19_23_0_0 + flow_20_23_0_0 + flow_21_23_0_0 - flow_23_17_0_0
   - flow_23_20_0_0 - flow_23_21_0_0 - flow_23_24_0_0 = 1
 one_parent_24: edge_3_24_0_0 + edge_5_24_0_0 + edge_7_24_0_0
   + edge_12_24_0_0 + edge_13_24_0_0 + edge_15_24_0_0 + edge_17_24_0_0
   + edge_19_24_0_0 + edge_21_24_0_0 + edge_23_24_0_0 = 1
 consume_one_flow_unit_24: flow_3_24_0_0 + flow_5_24_0_0 + flow_7_24_0_0
   + flow_12_24_0_0 + flow_13_24_0_0 + flow_15_24_0_0 + flow_17_24_0_0
   + flow_19_24_0_0 + flow_21_24_0_0 + flow_23_24_0_0 - flow_24_21_0_0 = 1
 root_flow: flow_0_2_0_0 + flow_0_3_0_0 + flow_0_4_0_0 + flow_0_5_0_0
   + flow_0_7_0_0 = 24
 inactive_no_flow_0_2_0_0: flow_0_2_0_0 - 1000 edge_0_2_0_0 <= 0
 inactive_no_flow_0_3_0_0: flow_0_3_0_0 - 1000 edge_0_3_0_0 <= 0
 inactive_no_flow_0_4_0_0: flow_0_4_0_0 - 1000 edge_0_4_0_0 <= 0
 inactive_no_flow_0_5_0_0: flow_0_5_0_0 - 1000 edge_0_5_0_0 <= 0
 inactive_no_flow_0_7_0_0: flow_0_7_0_0 - 1000 edge_0_7_0_0 <= 0
 inactive_no_flow_2_3_0_0: flow_2_3_0_0 - 1000 edge_2_3_0_0 <= 0
 inactive_no_flow_2_4_0_0: flow_2_4_0_0 - 1000 edge_2_4_0_0 <= 0
 inactive_no_flow_2_5_0_0: flow_2_5_0_0 - 1000 edge_2_5_0_0 <= 0
 inactive_no_flow_2_7_0_0: flow_2_7_0_0 - 1000 edge_2_7_0_0 <= 0
 inactive_no_flow_2_13_0_0: flow_2_13_0_0 - 1000 edge_2_13_0_0 <= 0
 inactive_no_flow_2_19_0_0: flow_2_19_0_0 - 1000 edge_2_19_0_0 <= 0
 inactive_no_flow_2_23_0_0: flow_2_23_0_0 - 1000 edge_2_23_0_0 <= 0
 inactive_no_flow_3_2_0_0: flow_3_2_0_0 - 1000 edge_3_2_0_0 <= 0
 inactive_no_flow_3_4_0_0: flow_3_4_0_0 - 1000 edge_3_4_0_0 <= 0
 inactive_no_flow_3_5_0_0: flow_3_5_0_0 - 1000 edge_3_5_0_0 <= 0
 inactive_no_flow_3_7_0_0: flow_3_7_0_0 - 1000 edge_3_7_0_0 <= 0
 inactive_no_flow_3_12_0_0: flow_3_12_0_0 - 1000 edge_3_12_0_0 <= 0
 inactive_no_flow_3_13_0_0: flow_3_13_0_0 - 1000 edge_3_13_0_0 <= 0
 inactive_no_flow_3_15_0_0: flow_3_15_0_0 - 1000 edge_3_15_0_0 <= 0
 inactive_no_flow_3_16_0_0: flow_3_16_0_0 - 1000 edge_3_16_0_0 <= 0
 inactive_no_flow_3_17_0_0: flow_3_17_0_0 - 1000 edge_3_17_0_0 <= 0
 inactive_no_flow_3_20_0_0: flow_3_20_0_0 - 1000 edge_3_20_0_0 <= 0
 inactive_no_flow_3_23_0_0: flow_3_23_0_0 - 1000 edge_3_23_0_0 <= 0
 inactive_no_flow_3_24_0_0: flow_3_24_0_0 - 1000 edge_3_24_0_0 <= 0
 inactive_no_flow_4_2_0_0: flow_4_2_0_0 - 1000 edge_4_2_0_0 <= 0
 inactive_no_flow_4_3_0_0: flow_4_3_0_0 - 1000 edge_4_3_0_0 <= 0
 inactive_no_flow_4_5_0_0: flow_4_5_0_0 - 1000 edge_4_5_0_0 <= 0
 inactive_no_flow_4_7_0_0: flow_4_7_0_0 - 1000 edge_4_7_0_0 <= 0
 inactive_no_flow_5_2_0_0: flow_5_2_0_0 - 1000 edge_5_2_0_0 <= 0
 inactive_no_flow_5_3_0_0: flow_5_3_0_0 - 1000 edge_5_3_0_0 <= 0
 inactive_no_flow_5_4_0_0: flow_5_4_0_0 - 1000 edge_5_4_0_0 <= 0
 inactive_no_flow_5_7_0_0: flow_5_7_0_0 - 1000 edge_5_7_0_0 <= 0
 inactive_no_flow_5_12_0_0: flow_5_12_0_0 - 1000 edge_5_12_0_0 <= 0
 inactive_no_flow_5_13_0_0: flow_5_13_0_0 - 1000 edge_5_13_0_0 <= 0
 inactive_no_flow_5_15_0_0: flow_5_15_0_0 - 1000 edge_5_15_0_0 <= 0
 inactive_no_flow_5_16_0_0: flow_5_16_0_0 - 1000 edge_5_16_0_0 <= 0
 inactive_no_flow_5_17_0_0: flow_5_17_0_0 - 1000 edge_5_17_0_0 <= 0
 inactive_no_flow_5_19_0_0: flow_5_19_0_0 - 1000 edge_5_19_0_0 <= 0
 inactive_no_flow_5_20_0_0: flow_5_20_0_0 - 1000 edge_5_20_0_0 <= 0
 inactive_no_flow_5_21_0_0: flow_5_21_0_0 - 1000 edge_5_21_0_0 <= 0
 inactive_no_flow_5_23_0_0: flow_5_23_0_0 - 1000 edge_5_23_0_0 <= 0
 inactive_no_flow_5_24_0_0: flow_5_24_0_0 - 1000 edge_5_24_0_0 <= 0
 inactive_no_flow_7_2_0_0: flow_7_2_0_0 - 1000 edge_7_2_0_0 <= 0
 inactive_no_flow_7_3_0_0: flow_7_3_0_0 - 1000 edge_7_3_0_0 <= 0
 inactive_no_flow_7_4_0_0: flow_7_4_0_0 - 1000 edge_7_4_0_0 <= 0
 inactive_no_flow_7_5_0_0: flow_7_5_0_0 - 1000 edge_7_5_0_0 <= 0
 inactive_no_flow_7_12_0_0: flow_7_12_0_0 - 1000 edge_7_12_0_0 <= 0
 inactive_no_flow_7_13_0_0: flow_7_13_0_0 - 1000 edge_7_13_0_0 <= 0
 inactive_no_flow_7_15_0_0: flow_7_15_0_0 - 1000 edge_7_15_0_0 <= 0
 inactive_no_flow_7_16_0_0: flow_7_16_0_0 - 1000 edge_7_16_0_0 <= 0
 inactive_no_flow_7_19_0_0: flow_7_19_0_0 - 1000 edge_7_19_0_0 <= 0
 inactive_no_flow_7_21_0_0: flow_7_21_0_0 - 1000 edge_7_21_0_0 <= 0
 inactive_no_flow_7_24_0_0: flow_7_24_0_0 - 1000 edge_7_24_0_0 <= 0
 inactive_no_flow_12_2_0_0: flow_12_2_0_0 - 1000 edge_12_2_0_0 <= 0
 inactive_no_flow_12_3_0_0: flow_12_3_0_0 - 1000 edge_12_3_0_0 <= 0
 inactive_no_flow_12_4_0_0: flow_12_4_0_0 - 1000 edge_12_4_0_0 <= 0
 inactive_no_flow_12_5_0_0: flow_12_5_0_0 - 1000 edge_12_5_0_0 <= 0
 inactive_no_flow_12_7_0_0: flow_12_7_0_0 - 1000 edge_12_7_0_0 <= 0
 inactive_no_flow_12_13_0_0: flow_12_13_0_0 - 1000 edge_12_13_0_0 <= 0
 inactive_no_flow_12_15_0_0: flow_12_15_0_0 - 1000 edge_12_15_0_0 <= 0
 inactive_no_flow_12_16_0_0: flow_12_16_0_0 - 1000 edge_12_16_0_0 <= 0
 inactive_no_flow_12_17_0_0: flow_12_17_0_0 - 1000 edge_12_17_0_0 <= 0
 inactive_no_flow_12_19_0_0: flow_12_19_0_0 - 1000 edge_12_19_0_0 <= 0
 inactive_no_flow_12_20_0_0: flow_12_20_0_0 - 1000 edge_12_20_0_0 <= 0
 inactive_no_flow_12_21_0_0: flow_12_21_0_0 - 1000 edge_12_21_0_0 <= 0
 inactive_no_flow_12_23_0_0: flow_12_23_0_0 - 1000 edge_12_23_0_0 <= 0
 inactive_no_flow_12_24_0_0: flow_12_24_0_0 - 1000 edge_12_24_0_0 <= 0
 inactive_no_flow_13_2_0_0: flow_13_2_0_0 - 1000 edge_13_2_0_0 <= 0
 inactive_no_flow_13_3_0_0: flow_13_3_0_0 - 1000 edge_13_3_0_0 <= 0
 inactive_no_flow_13_4_0_0: flow_13_4_0_0 - 1000 edge_13_4_0_0 <= 0
 inactive_no_flow_13_5_0_0: flow_13_5_0_0 - 1000 edge_13_5_0_0 <= 0
 inactive_no_flow_13_7_0_0: flow_13_7_0_0 - 1000 edge_13_7_0_0 <= 0
 inactive_no_flow_13_12_0_0: flow_13_12_0_0 - 1000 edge_13_12_0_0 <= 0
 inactive_no_flow_13_15_0_0: flow_13_15_0_0 - 1000 edge_13_15_0_0 <= 0
 inactive_no_flow_13_16_0_0: flow_13_16_0_0 - 1000 edge_13_16_0_0 <= 0
 inactive_no_flow_13_17_0_0: flow_13_17_0_0 - 1000 edge_13_17_0_0 <= 0
 inactive_no_flow_13_19_0_0: flow_13_19_0_0 - 1000 edge_13_19_0_0 <= 0
 inactive_no_flow_13_20_0_0: flow_13_20_0_0 - 1000 edge_13_20_0_0 <= 0
 inactive_no_flow_13_21_0_0: flow_13_21_0_0 - 1000 edge_13_21_0_0 <= 0
 inactive_no_flow_13_23_0_0: flow_13_23_0_0 - 1000 edge_13_23_0_0 <= 0
 inactive_no_flow_13_24_0_0: flow_13_24_0_0 - 1000 edge_13_24_0_0 <= 0
 inactive_no_flow_15_12_0_0: flow_15_12_0_0 - 1000 edge_15_12_0_0 <= 0
 inactive_no_flow_15_13_0_0: flow_15_13_0_0 - 1000 edge_15_13_0_0 <= 0
 inactive_no_flow_15_16_0_0: flow_15_16_0_0 - 1000 edge_15_16_0_0 <= 0
 inactive_no_flow_15_17_0_0: flow_15_17_0_0 - 1000 edge_15_17_0_0 <= 0
 inactive_no_flow_15_19_0_0: flow_15_19_0_0 - 1000 edge_15_19_0_0 <= 0
 inactive_no_flow_15_20_0_0: flow_15_20_0_0 - 1000 edge_15_20_0_0 <= 0
 inactive_no_flow_15_21_0_0: flow_15_21_0_0 - 1000 edge_15_21_0_0 <= 0
 inactive_no_flow_15_23_0_0: flow_15_23_0_0 - 1000 edge_15_23_0_0 <= 0
 inactive_no_flow_15_24_0_0: flow_15_24_0_0 - 1000 edge_15_24_0_0 <= 0
 inactive_no_flow_16_13_0_0: flow_16_13_0_0 - 1000 edge_16_13_0_0 <= 0
 inactive_no_flow_17_16_0_0: flow_17_16_0_0 - 1000 edge_17_16_0_0 <= 0
 inactive_no_flow_17_19_0_0: flow_17_19_0_0 - 1000 edge_17_19_0_0 <= 0
 inactive_no_flow_17_20_0_0: flow_17_20_0_0 - 1000 edge_17_20_0_0 <= 0
 inactive_no_flow_17_21_0_0: flow_17_21_0_0 - 1000 edge_17_21_0_0 <= 0
 inactive_no_flow_17_23_0_0: flow_17_23_0_0 - 1000 edge_17_23_0_0 <= 0
 inactive_no_flow_17_24_0_0: flow_17_24_0_0 - 1000 edge_17_24_0_0 <= 0
 inactive_no_flow_19_12_0_0: flow_19_12_0_0 - 1000 edge_19_12_0_0 <= 0
 inactive_no_flow_19_13_0_0: flow_19_13_0_0 - 1000 edge_19_13_0_0 <= 0
 inactive_no_flow_19_15_0_0: flow_19_15_0_0 - 1000 edge_19_15_0_0 <= 0
 inactive_no_flow_19_16_0_0: flow_19_16_0_0 - 1000 edge_19_16_0_0 <= 0
 inactive_no_flow_19_17_0_0: flow_19_17_0_0 - 1000 edge_19_17_0_0 <= 0
 inactive_no_flow_19_20_0_0: flow_19_20_0_0 - 1000 edge_19_20_0_0 <= 0
 inactive_no_flow_19_21_0_0: flow_19_21_0_0 - 1000 edge_19_21_0_0 <= 0
 inactive_no_flow_19_23_0_0: flow_19_23_0_0 - 1000 edge_19_23_0_0 <= 0
 inactive_no_flow_19_24_0_0: flow_19_24_0_0 - 1000 edge_19_24_0_0 <= 0
 inactive_no_flow_20_23_0_0: flow_20_23_0_0 - 1000 edge_20_23_0_0 <= 0
 inactive_no_flow_21_12_0_0: flow_21_12_0_0 - 1000 edge_21_12_0_0 <= 0
 inactive_no_flow_21_15_0_0: flow_21_15_0_0 - 1000 edge_21_15_0_0 <= 0
 inactive_no_flow_21_17_0_0: flow_21_17_0_0 - 1000 edge_21_17_0_0 <= 0
 inactive_no_flow_21_19_0_0: flow_21_19_0_0 - 1000 edge_21_19_0_0 <= 0
 inactive_no_flow_21_20_0_0: flow_21_20_0_0 - 1000 edge_21_20_0_0 <= 0
 inactive_no_flow_21_23_0_0: flow_21_23_0_0 - 1000 edge_21_23_0_0 <= 0
 inactive_no_flow_21_24_0_0: flow_21_24_0_0 - 1000 edge_21_24_0_0 <= 0
 inactive_no_flow_23_17_0_0: flow_23_17_0_0 - 1000 edge_23_17_0_0 <= 0
 inactive_no_flow_23_20_0_0: flow_23_20_0_0 - 1000 edge_23_20_0_0 <= 0
 inactive_no_flow_23_21_0_0: flow_23_21_0_0 - 1000 edge_23_21_0_0 <= 0
 inactive_no_flow_23_24_0_0: flow_23_24_0_0 - 1000 edge_23_24_0_0 <= 0
 inactive_no_flow_24_21_0_0: flow_24_21_0_0 - 1000 edge_24_21_0_0 <= 0
Bounds
Binaries
 edge_0_2_0_0 edge_0_3_0_0 edge_0_4_0_0 edge_0_5_0_0 edge_0_7_0_0
 edge_2_3_0_0 edge_2_4_0_0 edge_2_5_0_0 edge_2_7_0_0 edge_2_13_0_0
 edge_2_19_0_0 edge_2_23_0_0 edge_3_2_0_0 edge_3_4_0_0 edge_3_5_0_0
 edge_3_7_0_0 edge_3_12_0_0 edge_3_13_0_0 edge_3_15_0_0 edge_3_16_0_0
 edge_3_17_0_0 edge_3_20_0_0 edge_3_23_0_0 edge_3_24_0_0 edge_4_2_0_0
 edge_4_3_0_0 edge_4_5_0_0 edge_4_7_0_0 edge_5_2_0_0 edge_5_3_0_0
 edge_5_4_0_0 edge_5_7_0_0 edge_5_12_0_0 edge_5_13_0_0 edge_5_15_0_0
 edge_5_16_0_0 edge_5_17_0_0 edge_5_19_0_0 edge_5_20_0_0 edge_5_21_0_0
 edge_5_23_0_0 edge_5_24_0_0 edge_7_2_0_0 edge_7_3_0_0 edge_7_4_0_0
 edge_7_5_0_0 edge_7_12_0_0 edge_7_13_0_0 edge_7_15_0_0 edge_7_16_0_0
 edge_7_19_0_0 edge_7_21_0_0 edge_7_24_0_0 edge_12_2_0_0 edge_12_3_0_0
 edge_12_4_0_0 edge_12_5_0_0 edge_12_7_0_0 edge_12_13_0_0 edge_12_15_0_0
 edge_12_16_0_0 edge_12_17_0_0 edge_12_19_0_0 edge_12_20_0_0 edge_12_21_0_0
 edge_12_23_0_0 edge_12_24_0_0 edge_13_2_0_0 edge_13_3_0_0 edge_13_4_0_0
 edge_13_5_0_0 edge_13_7_0_0 edge_13_12_0_0 edge_13_15_0_0 edge_13_16_0_0
 edge_13_17_0_0 edge_13_19_0_0 edge_13_20_0_0 edge_13_21_0_0 edge_13_23_0_0
 edge_13_24_0_0 edge_15_12_0_0 edge_15_13_0_0 edge_15_16_0_0 edge_15_17_0_0
 edge_15_19_0_0 edge_15_20_0_0 edge_15_21_0_0 edge_15_23_0_0 edge_15_24_0_0
 edge_16_13_0_0 edge_17_16_0_0 edge_17_19_0_0 edge_17_20_0_0 edge_17_21_0_0
 edge_17_23_0_0 edge_17_24_0_0 edge_19_12_0_0 edge_19_13_0_0 edge_19_15_0_0
 edge_19_16_0_0 edge_19_17_0_0 edge_19_20_0_0 edge_19_21_0_0 edge_19_23_0_0
 edge_19_24_0_0 edge_20_23_0_0 edge_21_12_0_0 edge_21_15_0_0 edge_21_17_0_0
 edge_21_19_0_0 edge_21_20_0_0 edge_21_23_0_0 edge_21_24_0_0 edge_23_17_0_0
 edge_23_20_0_0 edge_23_21_0_0 edge_23_24_0_0 edge_24_21_0_0
End
